! HF 6-31G* Opt Freq
%pal nprocs 16 end
%maxcore 3000
* xyz 0 1

*
